DATASET = "thpack3";
INSTANCE = "056";

WIDTH = 233;
HEIGHT = 220;
LENGTH = 587;

NO_OF_SHAPES = 8;
size = [|
  90,41,34 |
  64,32,28 |
  42,31,31 |
  94,90,44 |
  68,63,53 |
  55,30,21 |
  72,64,31 |
  75,56,34 |
|];

verticality = [|
  0,1,1 |
  0,1,1 |
  1,1,1 |
  0,0,1 |
  1,1,1 |
  0,1,1 |
  0,0,1 |
  0,1,1 |
|];

box_count = [
  40,
  20,
  21,
  22,
  23,
  27,
  29,
  30,
];
